c WARNING: for repeatability, setting FPU to use double precision
d VARIABLES            74014        
d CONSTRAINTS          295174       
c ============================[ Problem Statistics ]=============================
c |                                                                             |
c |  Number of variables:         74014                                         |
c |  Number of clauses:          295174                                         |
c |  Parse time:                   0.04 s                                       |
c |                                                                             |
c ============================[ Search Statistics ]==============================
c | Conflicts |          ORIGINAL         |          LEARNT          | Progress |
c |           |    Vars  Clauses Literals |    Limit  Clauses Lit/Cl |          |
c ===============================================================================
c |       100 |   53932   243152   594699 |    89155      100     17 | 27.133 % |
c |       250 |   53932   243152   594699 |    98071      250     56 | 27.133 % |
c |       475 |   53932   243152   594699 |   107878      475     66 | 27.133 % |
c |       812 |   53932   243152   594699 |   118666      812     67 | 27.133 % |
c |      1318 |   53932   243152   594699 |   130532     1318    104 | 27.133 % |
c |      2077 |   53932   243152   594699 |   143586     2077    100 | 27.133 % |
c |      3216 |   53932   243152   594699 |   157944     3216    128 | 27.133 % |
c |      4924 |   53931   243142   594676 |   173739     4918    125 | 27.134 % |
c |      7486 |   53931   243142   594676 |   191113     7480    127 | 27.134 % |
c |     11330 |   53931   243142   594676 |   210224    11324    145 | 27.134 % |
c |     17096 |   53930   243132   594653 |   231247    17087    141 | 27.135 % |
c |     25745 |   53926   243092   594561 |   254371    25689    140 | 27.141 % |
c |     38719 |   53915   242982   594308 |   279808    38473    166 | 27.156 % |
c |     58180 |   53640   241982   591987 |   307789    55239    170 | 27.527 % |
c ===============================================================================
c restarts              : 203
c conflicts             : 66118          (2540 /sec)
c decisions             : 328870         (0.00 % random) (12634 /sec)
c propagations          : 134503862      (5167337 /sec)
c conflict literals     : 11377378       (13.86 % deleted)
d RESTARTS             203
d FAILURES             66118        
d NODES                328870       
d BACKTRACKS           328870       
d PROPAGATIONS         134503862    
d NOGOODSIZE           172.08 
d MEMORY               73.00 
d TIME                 26.0296 

s SATISFIABLE
